nNurses = 50;
nHours = 33;
minHours = 3;
maxHours = 19;
maxConsec = 13;
maxPresence = 16;
demand = [19, 15, 11, 13, 11, 16, 16, 18, 18, 17, 17, 18, 18, 16, 15, 16, 12, 11, 8, 10, 8, 13, 14, 12, 8, 12, 8, 12, 7, 11, 8, 8, 13];
